15
-1 478 210 75 185 378 52 461 315 259 352 211 442 308 613 
478 -1 686 550 376 100 530 577 262 481 270 385 186 334 835 
210 686 -1 136 344 585 165 512 489 341 519 356 626 501 570 
75 550 136 -1 225 449 44 459 367 263 400 245 500 379 580 
185 376 344 225 -1 283 232 312 146 129 176 31 283 362 520 
378 100 585 449 283 -1 429 516 189 396 209 296 171 268 766 
52 530 165 44 232 429 -1 489 366 290 402 255 495 339 621 
461 577 512 459 312 516 489 -1 327 202 308 281 402 670 262 
315 262 489 367 146 189 366 327 -1 221 41 140 137 377 577 
259 481 341 263 129 396 290 202 221 -1 231 104 348 489 391 
352 270 519 400 176 209 402 308 41 231 -1 164 117 415 565 
211 385 356 245 31 296 255 281 140 104 164 -1 277 391 494 
442 186 626 500 283 171 495 402 137 348 117 277 -1 428 664 
308 334 501 379 362 268 339 670 377 489 415 391 428 -1 879 
613 835 570 580 520 766 621 262 577 391 565 494 664 879 -1 
